p cnf 10 50
1 -6 -5 0
-7 3 1 0
10 1 2 0
10 1 6 0
2 9 4 0
-1 -4 -5 0
-8 -4 10 0
9 8 -6 0
-10 -9 -2 0
-4 -3 7 0
-7 -1 2 0
-4 7 -8 0
10 1 3 0
-9 6 -4 0
-1 -2 3 0
-5 9 6 0
5 -7 -6 0
-4 -9 -7 0
1 -2 8 0
5 1 7 0
5 -9 -1 0
7 -2 -4 0
-5 -1 -7 0
-4 7 2 0
8 -6 -4 0
9 -3 -10 0
7 5 -9 0
-8 -10 -2 0
-5 -10 4 0
1 -10 2 0
-8 4 10 0
3 -8 -10 0
8 -6 7 0
-9 -7 4 0
-10 -8 -6 0
7 -8 1 0
1 -6 10 0
8 -2 -3 0
-1 3 2 0
-8 1 -6 0
-5 10 8 0
6 5 8 0
1 -3 -9 0
10 -5 1 0
5 -1 10 0
-8 1 4 0
9 -1 5 0
2 -5 4 0
-6 -1 5 0
4 5 8 0
